scenarios/sols/small/emicp_milp/008.sol
objective value:                     1.51167451498979
x(0,2,0)                                            1 	(obj:0)
x(1,2,2)                                            1 	(obj:0)
x(1,9,1)                                            1 	(obj:0)
x(2,4,0)                                            1 	(obj:0)
x(2,4,2)                                            1 	(obj:0)
x(2,11,1)                                           1 	(obj:0)
x(3,8,2)                                            1 	(obj:0)
x(4,10,0)                                           1 	(obj:0)
x(4,13,2)                                           1 	(obj:0)
x(8,1,2)                                            1 	(obj:0)
x(9,2,1)                                            1 	(obj:0)
x(10,0,0)                                           1 	(obj:0)
x(11,1,1)                                           1 	(obj:0)
x(13,3,2)                                           1 	(obj:0)
xc(2,1)                                             1 	(obj:0)
xc(4,8)                                             1 	(obj:0)
xc(8,13)                                            1 	(obj:0)
u(1,2)                                0.5295789062359 	(obj:0)
u(2,0)                              0.400732497032999 	(obj:0)
u(2,1)                                1.3118516198859 	(obj:0)
u(2,2)                              0.729401801339698 	(obj:0)
u(3,1)                               1.51167451498979 	(obj:0)
u(4,0)                              0.743139696466098 	(obj:0)
u(4,2)                               1.42591487251439 	(obj:0)
u(5,1)                               1.51167451498979 	(obj:0)
u(8,2)                                0.1779188714626 	(obj:0)
u(9,0)                               1.51167451498979 	(obj:0)
u(9,1)                                0.5722510693075 	(obj:0)
u(10,0)                              1.51167451498979 	(obj:0)
u(10,1)                             0.399645790207786 	(obj:0)
u(10,2)                             0.399645790207786 	(obj:0)
u(11,0)                             0.399645790207786 	(obj:0)
u(11,1)                              1.51167451498979 	(obj:0)
u(11,2)                             0.184710922949401 	(obj:0)
u(12,0)                               0.3499568323474 	(obj:0)
u(12,1)                             0.167349481270898 	(obj:0)
u(12,2)                               0.2566475569577 	(obj:0)
u(13,0)                             0.399645790207786 	(obj:0)
u(13,1)                             0.323474186311099 	(obj:0)
u(13,2)                              1.51167451498979 	(obj:0)
u(14,0)                             0.399645790207786 	(obj:0)
u(14,1)                               0.2492955601767 	(obj:0)
u(14,2)                            0.0104958610281987 	(obj:0)
u(15,0)                             0.229320875303699 	(obj:0)
u(15,1)                             0.399645790207786 	(obj:0)
u(15,2)                             0.399645790207786 	(obj:0)
u(16,0)                               0.3967409820167 	(obj:0)
u(16,1)                             0.399645790207786 	(obj:0)
u(16,2)                             0.399645790207786 	(obj:0)
u(17,0)                             0.329484334042901 	(obj:0)
u(17,1)                             0.399645790207786 	(obj:0)
u(17,2)                             0.399645790207786 	(obj:0)
u(18,0)                             0.399645790207786 	(obj:0)
u(18,1)                               0.3357238598682 	(obj:0)
u(18,2)                               0.1026550900154 	(obj:0)
u(19,0)                             0.399645790207786 	(obj:0)
u(19,1)                             0.399645790207786 	(obj:0)
u(19,2)                             0.399645790207786 	(obj:0)
f(0,2,0)                                            1 	(obj:0)
f(0,2,2)                                            1 	(obj:0)
f(1,2,1)                                            1 	(obj:0)
f(1,9,0)                                            1 	(obj:0)
f(1,9,1)                                            1 	(obj:0)
f(1,9,2)                                            1 	(obj:0)
f(1,9,3)                                            1 	(obj:0)
f(1,9,4)                                            1 	(obj:0)
f(2,1,1)                                            1 	(obj:0)
f(2,1,2)                                            1 	(obj:0)
f(2,4,2)                                            1 	(obj:0)
f(2,11,0)                                           1 	(obj:0)
f(3,8,3)                                            1 	(obj:0)
f(4,8,4)                                            1 	(obj:0)
f(4,10,2)                                           1 	(obj:0)
f(8,1,3)                                            1 	(obj:0)
f(8,1,4)                                            1 	(obj:0)
f(10,0,2)                                           1 	(obj:0)
f(11,1,0)                                           1 	(obj:0)
z_r(0,)                              1.51167451498979 	(obj:0)
z_r(1,)                              1.51167451498979 	(obj:0)
z_r(2,)                              1.51167451498979 	(obj:0)
z                                    1.51167451498979 	(obj:1)
